row=5;
column=5;
left=[0, 0, 12, 9, 7];
right=[0, 12, 0, 6, 0];
top=[5, 9, 6, 12, 0];
bottom=[0, 0, 12, 0, 0];
Board=[|0,0,0,0,0|0,0,0,0,0|0,0,0,0,0|0,0,0,0,0|0,0,0,0,0|]